NAME: random95
TYPE: TSP
DIMENSION: 95
EDGE_WEIGHT_TYPE: EXPLICIT
EDGE_WEIGHT_FORMAT: FULL_MATRIX
EDGE_WEIGHT_SECTION
0 660 660 660 660 660 660 660 21 660 660 16 660 4 660 660 21 660 660 15 660 29 660 660 12 660 660 660 660 660 660 660 660 36 660 660 660 660 14 660 660 660 6 25 660 660 660 660 660 22 660 660 660 660 45 26 660 36 660 660 660 660 660 660 15 20 660 660 24 660 660 660 660 23 18 660 660 660 660 660 660 660 660 32 660 660 660 660 660 30 660 660 18 660 660
660 0 660 660 29 660 660 660 660 34 660 660 660 660 52 660 660 660 660 660 660 660 28 660 660 660 8 660 660 660 660 27 660 660 660 24 660 660 660 660 660 660 660 660 660 660 18 660 15 660 6 660 51 660 660 660 660 660 660 19 660 660 20 660 660 660 660 660 660 660 660 660 660 660 660 660 660 25 35 17 660 660 33 660 33 660 660 660 660 660 28 660 660 32 660
660 660 0 660 25 9 660 660 660 660 660 660 24 660 15 19 660 660 660 660 660 660 10 16 660 660 660 660 660 660 11 660 660 660 660 14 660 660 660 44 660 660 660 660 660 660 660 24 660 660 660 10 660 15 660 660 660 660 660 20 660 660 660 660 660 660 8 660 660 22 660 660 660 660 660 660 660 17 660 660 660 660 660 660 18 660 29 18 660 660 660 660 660 12 660
660 660 660 0 660 660 23 660 660 14 660 660 660 660 660 660 660 660 660 660 28 660 660 660 660 660 32 660 660 660 660 24 660 22 660 660 660 660 660 660 22 660 660 660 29 660 660 660 660 660 23 660 660 660 660 660 660 660 31 33 22 660 660 23 660 660 660 660 660 660 660 660 15 660 660 22 660 26 26 12 12 27 21 660 660 660 24 29 40 660 660 660 660 32 660
660 29 25 660 0 25 660 660 660 660 660 660 660 660 32 41 660 660 660 660 660 660 17 660 660 660 35 660 660 660 26 660 660 660 660 20 660 660 660 660 660 660 660 660 660 660 18 660 20 660 30 660 79 40 660 660 660 660 660 17 660 660 19 660 660 660 23 660 660 660 660 660 660 660 660 660 660 27 63 660 660 660 660 660 7 660 660 660 660 660 23 660 660 660 660
660 660 9 660 25 0 660 16 660 660 660 660 26 660 8 17 660 660 660 660 660 660 17 20 660 660 660 660 660 660 2 660 660 660 660 22 660 660 660 660 660 660 660 660 660 660 660 24 42 660 660 19 660 17 660 660 660 660 660 26 660 660 660 660 660 660 16 660 660 25 660 660 660 660 660 660 660 26 660 660 660 660 660 660 18 660 660 27 660 660 48 660 660 21 660
660 660 660 23 660 660 0 660 26 36 26 660 34 38 660 660 21 660 660 41 660 26 660 30 660 660 660 660 660 660 660 660 660 19 27 660 660 660 660 32 4 40 660 25 660 660 660 660 660 660 660 660 660 660 660 660 660 47 14 660 32 660 660 660 660 660 660 660 660 32 660 660 8 660 660 21 660 25 660 30 13 29 14 660 660 660 6 17 660 38 660 660 660 660 660
660 660 660 660 660 16 660 0 660 660 660 660 17 660 10 6 660 660 660 660 660 660 660 660 660 660 660 660 660 660 15 660 13 660 660 660 660 17 660 660 660 660 660 660 660 13 660 11 660 660 660 660 660 12 660 660 26 660 660 660 660 31 660 660 660 660 660 20 660 18 660 660 660 660 660 660 660 660 660 660 660 660 660 660 34 660 660 660 660 660 660 660 660 660 660
21 660 660 660 660 660 26 660 0 660 660 660 660 19 660 660 12 660 660 14 660 8 660 660 30 660 660 660 660 660 660 660 660 31 13 660 660 660 660 660 660 660 26 4 660 660 660 660 660 30 660 660 660 660 660 660 660 24 17 660 660 660 660 660 7 660 660 660 660 660 660 660 660 660 660 660 660 660 660 660 660 660 660 660 660 660 660 660 660 38 660 660 660 660 660
660 34 660 14 660 660 36 660 660 0 660 660 660 660 660 660 660 660 660 660 14 660 660 660 660 660 34 660 660 660 660 15 660 28 660 660 36 660 660 660 35 660 660 660 20 660 660 660 660 660 30 660 24 660 660 660 660 660 660 660 18 660 660 9 660 660 660 660 660 660 660 25 28 660 660 27 660 40 14 20 23 27 35 660 660 660 660 43 35 660 61 660 660 660 24
660 660 660 660 660 660 26 660 660 660 0 660 28 660 660 660 22 660 660 24 660 6 660 31 660 660 660 660 660 660 660 660 660 38 1 660 660 660 660 9 29 15 660 9 660 33 660 34 660 38 660 40 660 35 23 660 34 21 23 660 660 660 660 660 660 660 660 660 660 27 660 660 35 660 660 660 660 45 660 660 38 660 36 660 660 32 28 33 660 660 660 660 660 660 660
16 660 660 660 660 660 660 660 660 660 660 0 660 17 660 660 660 15 660 31 660 660 660 660 6 660 660 660 660 660 660 660 660 660 660 660 660 660 7 660 660 660 17 660 660 660 660 660 660 660 660 660 660 660 660 12 660 660 660 660 660 660 660 660 660 19 660 660 9 660 660 660 660 23 17 660 660 660 660 660 660 660 660 22 660 660 660 660 660 23 660 660 10 660 660
660 660 24 660 660 26 34 17 660 660 28 660 0 660 23 12 660 660 660 660 660 33 660 9 660 660 660 660 660 660 26 660 15 660 28 660 660 22 660 23 660 29 660 660 660 8 660 7 660 660 660 25 660 9 37 660 20 660 660 660 660 28 660 660 660 660 660 17 660 3 660 660 660 660 660 660 660 660 660 660 660 660 660 660 660 25 30 24 660 660 660 660 660 660 660
4 660 660 660 660 660 38 660 19 660 660 17 660 0 660 660 17 28 35 16 660 26 660 660 12 660 660 660 660 660 660 660 660 32 660 660 660 660 16 660 660 660 10 23 660 660 660 660 660 25 660 660 660 660 660 25 660 36 24 660 660 660 660 660 12 23 660 660 24 660 660 660 660 660 21 32 30 660 660 660 660 33 660 30 660 660 660 660 660 28 660 660 21 660 660
660 52 15 660 32 8 660 10 660 660 660 660 23 660 0 12 660 660 660 660 660 660 24 19 660 660 60 660 660 660 6 660 23 660 660 29 660 27 660 660 660 660 660 660 660 21 49 19 50 660 660 660 95 15 660 660 660 660 660 33 660 41 50 660 660 660 660 30 660 23 660 660 660 660 660 660 660 660 660 660 660 660 660 660 24 660 660 660 660 660 55 660 660 660 660
660 660 19 660 41 17 660 6 660 660 660 660 12 660 12 0 660 660 660 660 660 660 660 11 660 660 660 660 660 660 16 660 13 660 660 660 660 19 660 34 660 660 660 660 660 9 660 7 660 660 660 660 660 6 660 660 25 660 660 660 660 660 660 660 660 660 660 19 660 12 660 660 660 660 660 660 660 660 660 660 660 660 660 660 34 660 660 660 660 660 660 660 660 660 660
21 660 660 660 660 660 21 660 12 660 22 660 660 17 660 660 0 660 36 23 660 18 660 660 25 660 660 660 660 660 660 660 660 19 660 660 660 660 33 660 660 660 27 15 660 660 660 660 660 660 660 660 660 660 660 34 660 36 7 660 34 660 660 660 10 660 660 660 34 660 660 660 26 660 660 20 27 660 660 660 27 25 660 32 660 660 660 660 37 27 660 660 660 660 660
660 660 660 660 660 660 660 660 660 660 660 15 660 28 660 660 660 0 14 660 660 660 660 660 17 15 660 45 16 660 660 660 660 660 660 660 27 660 21 660 660 660 31 660 660 660 660 660 660 49 660 660 660 660 660 3 660 660 660 660 660 660 660 660 660 33 660 660 6 660 26 660 660 37 31 660 19 660 660 660 660 660 660 11 660 660 660 660 20 16 660 660 23 660 660
660 660 660 660 660 660 660 660 660 660 660 660 660 35 660 660 36 14 0 660 660 660 660 660 27 2 660 32 3 660 660 660 660 27 660 660 14 660 660 660 660 660 660 660 21 660 660 660 660 660 660 660 660 660 660 16 660 660 660 660 23 660 660 660 660 660 660 660 19 660 15 34 660 660 660 26 10 660 660 660 660 18 660 6 660 660 660 660 6 9 660 660 660 660 660
15 660 660 660 660 660 41 660 14 660 24 31 660 16 660 660 23 660 660 0 660 19 660 660 27 660 660 660 660 660 660 660 660 42 24 660 660 660 28 30 660 28 16 17 660 660 660 660 660 16 660 660 660 660 30 40 660 21 29 660 660 660 660 660 12 29 660 660 660 660 660 660 660 31 28 660 660 660 660 660 660 660 660 660 660 49 660 660 660 42 660 660 31 660 660
660 660 660 28 660 660 660 660 660 14 660 660 660 660 660 660 660 660 660 660 0 660 660 660 660 660 42 26 39 19 660 18 660 660 660 660 31 660 660 660 660 660 660 660 19 660 660 660 660 660 660 660 10 660 660 660 660 660 660 660 23 660 64 5 660 660 660 660 660 660 34 14 660 660 660 660 660 660 11 32 660 32 660 660 660 660 660 660 34 660 70 25 660 660 10
29 660 660 660 660 660 26 660 8 660 6 660 33 26 660 660 18 660 660 19 660 0 660 660 660 660 660 660 660 660 660 660 660 35 6 660 660 660 660 14 29 18 32 4 660 660 660 660 660 34 660 660 660 660 25 660 660 21 20 660 660 660 660 660 14 46 660 660 660 32 660 660 34 660 660 36 660 660 660 660 37 660 37 660 660 37 28 35 660 44 660 660 660 660 660
660 28 10 660 17 17 660 660 660 660 660 660 660 660 24 660 660 660 660 660 660 660 0 25 660 660 660 660 660 660 18 660 660 660 660 6 660 660 660 660 660 660 660 660 660 660 29 660 28 660 26 11 660 26 660 660 660 660 660 10 660 660 660 660 660 660 6 660 660 32 660 660 660 660 660 660 660 12 660 32 660 660 660 660 13 660 660 20 660 660 37 660 660 12 660
660 660 16 660 660 20 30 660 660 660 31 660 9 660 19 11 660 660 660 660 660 660 25 0 660 660 660 660 660 660 20 660 660 660 660 27 660 660 660 28 28 660 660 660 660 14 660 12 660 660 660 17 660 5 660 660 28 660 660 660 660 660 660 660 660 660 20 660 660 6 660 660 660 660 660 660 660 26 660 660 660 660 25 660 34 660 25 17 660 660 660 660 660 18 660
12 660 660 660 660 660 660 660 30 660 660 6 660 12 660 660 25 17 27 27 660 660 660 660 0 29 660 660 660 660 660 660 660 34 660 660 660 660 9 660 660 660 14 660 660 660 660 660 660 32 660 660 660 660 660 14 660 660 31 660 660 660 660 660 24 21 660 660 12 660 660 660 660 25 18 660 26 660 660 660 660 32 660 22 660 660 660 660 660 22 660 660 13 660 660
660 660 660 660 660 660 660 660 660 660 660 660 660 660 660 660 660 15 2 660 660 660 660 660 29 0 660 31 2 660 660 660 660 660 660 660 12 660 660 660 660 660 660 660 22 660 660 660 660 660 660 660 660 660 660 17 660 660 660 660 660 660 660 660 660 660 660 660 20 660 13 33 660 660 660 660 12 660 660 660 660 20 660 7 660 660 660 660 6 12 660 660 37 660 660
660 8 660 32 35 660 660 660 660 34 660 660 660 660 60 660 660 660 660 660 42 660 660 660 660 660 0 660 660 59 660 23 660 660 660 33 660 660 660 660 660 660 660 660 54 660 21 660 18 660 13 660 48 660 660 660 660 660 660 27 51 660 22 40 660 660 660 660 660 660 660 55 660 660 660 660 660 33 31 21 660 660 40 660 40 660 660 44 660 660 29 660 660 660 49
660 660 660 660 660 660 660 660 660 660 660 660 660 660 660 660 660 45 32 660 26 660 660 660 660 31 660 0 29 13 660 660 660 660 660 660 18 660 660 660 660 660 660 660 23 660 660 660 660 660 660 660 22 660 660 660 660 660 660 660 32 660 660 29 660 660 660 660 660 660 18 13 660 660 660 660 660 660 660 660 660 660 660 660 660 660 660 660 28 660 660 6 660 660 20
660 660 660 660 660 660 660 660 660 660 660 660 660 660 660 660 660 16 3 660 39 660 660 660 660 2 660 29 0 660 660 660 660 660 660 660 11 660 660 660 660 660 660 660 21 660 660 660 660 660 660 660 660 660 660 19 660 660 660 660 23 660 660 37 660 660 660 660 660 660 12 32 660 660 660 660 12 660 660 660 660 20 660 9 660 660 660 660 5 12 660 35 660 660 660
660 660 660 660 660 660 660 660 660 660 660 660 660 660 660 660 660 660 660 660 19 660 660 660 660 660 59 13 660 0 660 660 660 660 660 660 29 660 660 660 660 660 660 660 26 660 660 660 660 660 660 660 11 660 660 660 660 660 660 660 660 660 660 23 660 660 660 660 660 660 30 9 660 660 660 660 660 660 28 660 660 660 660 660 660 660 660 660 660 660 660 8 660 660 10
660 660 11 660 26 2 660 15 660 660 660 660 26 660 6 16 660 660 660 660 660 660 18 20 660 660 660 660 660 660 0 660 660 660 660 24 660 32 660 660 660 660 660 660 660 660 660 23 44 660 660 20 660 16 660 660 660 660 660 28 660 660 45 660 660 660 18 660 660 25 660 660 660 660 660 660 660 660 660 660 660 660 660 660 19 660 660 660 660 660 49 660 660 660 660
660 27 660 24 660 660 660 660 660 15 660 660 660 660 660 660 660 660 660 660 18 660 660 660 660 660 23 660 660 660 660 0 660 660 660 660 660 660 660 660 660 660 660 660 33 660 660 660 41 660 25 660 24 660 660 660 660 660 660 42 33 660 46 17 660 660 660 660 660 660 660 660 38 660 660 660 660 42 8 21 35 660 42 660 660 660 660 660 660 660 52 660 660 660 26
660 660 660 660 660 660 660 13 660 660 660 660 15 660 23 13 660 660 660 660 660 660 660 660 660 660 660 660 660 660 660 660 0 660 660 660 660 7 660 31 660 660 660 660 660 7 660 9 660 660 660 660 660 18 660 660 13 660 660 660 660 18 660 660 660 660 660 7 660 17 660 660 660 660 660 660 660 660 660 660 660 660 660 660 660 21 660 660 660 660 660 660 660 660 660
36 660 660 22 660 660 19 660 31 28 38 660 660 32 660 660 19 660 27 42 660 35 660 660 34 660 660 660 660 660 660 660 660 0 39 660 660 660 660 660 22 660 660 33 24 660 660 660 660 660 660 660 660 660 660 34 660 660 15 660 15 660 660 660 29 660 660 660 660 660 660 660 18 660 660 2 17 660 660 660 14 10 29 26 660 660 25 660 25 20 660 660 660 660 660
660 660 660 660 660 660 27 660 13 660 1 660 28 660 660 660 660 660 660 24 660 6 660 660 660 660 660 660 660 660 660 660 660 39 0 660 660 660 660 9 29 14 38 9 660 660 660 660 660 38 660 660 660 35 22 660 34 20 24 660 660 41 660 660 660 660 660 660 660 27 660 660 660 660 660 660 660 660 660 660 660 660 660 660 660 31 28 33 660 660 660 660 660 660 660
660 24 14 660 20 22 660 660 660 660 660 660 660 660 29 660 660 660 660 660 660 660 6 27 660 660 33 660 660 660 24 660 660 660 660 0 660 660 660 660 660 660 660 660 660 660 660 660 27 660 21 10 660 28 660 660 660 660 660 7 660 660 660 660 660 660 7 660 660 660 660 660 660 660 660 660 660 7 660 26 660 660 19 660 18 660 27 17 660 660 660 660 660 10 660
660 660 660 660 660 660 660 660 660 36 660 660 660 660 660 660 660 27 14 660 31 660 660 660 660 12 660 18 11 29 660 660 660 660 660 660 0 660 660 660 660 660 660 660 16 660 660 660 660 660 660 660 33 660 660 660 660 660 660 660 22 660 660 31 660 660 660 660 660 660 4 22 660 660 660 32 20 660 42 660 660 24 660 19 660 660 660 660 10 21 660 25 660 660 31
660 660 660 660 660 660 660 17 660 660 660 660 22 660 27 19 660 660 660 660 660 660 660 660 660 660 660 660 660 660 32 660 7 660 660 660 660 0 660 37 660 660 660 660 660 14 660 16 660 660 660 660 660 24 43 660 14 660 660 660 660 15 660 660 660 660 660 9 660 660 660 660 660 660 660 660 660 660 660 660 660 660 660 660 660 22 660 660 660 660 660 660 660 660 660
14 660 660 660 660 660 660 660 660 660 660 7 660 16 660 660 33 21 660 28 660 660 660 660 9 660 660 660 660 660 660 660 660 660 660 660 660 660 0 660 660 660 13 660 660 660 660 660 660 29 660 660 660 660 660 18 660 49 660 660 660 660 660 660 29 13 660 660 16 660 660 660 660 17 10 660 660 660 660 660 660 660 660 660 660 660 660 660 660 30 660 660 5 660 660
660 660 44 660 660 660 32 660 660 660 9 660 23 660 660 34 660 660 660 30 660 14 660 28 660 660 660 660 660 660 660 660 31 660 9 660 660 37 660 0 34 9 660 660 660 27 660 28 660 42 660 660 660 31 18 660 25 19 32 660 660 33 660 660 660 660 660 28 660 23 660 660 660 660 660 660 660 660 660 660 660 660 39 660 660 23 32 34 660 660 660 660 660 660 660
660 660 660 22 660 660 4 660 660 35 29 660 660 660 660 660 660 660 660 660 660 29 660 28 660 660 660 660 660 660 660 660 660 22 29 660 660 660 660 34 0 660 660 660 660 660 660 660 660 660 660 660 660 660 660 660 660 660 18 660 34 660 660 660 660 660 660 660 660 30 660 660 7 660 660 23 660 21 660 27 12 660 10 660 660 660 3 14 660 660 660 660 660 21 660
660 660 660 660 660 660 40 660 660 660 15 660 29 660 660 660 660 660 660 28 660 18 660 660 660 660 660 660 660 660 660 660 660 660 14 660 660 660 660 9 660 0 44 21 660 32 660 660 660 38 660 660 660 660 9 660 26 12 660 660 660 32 660 660 660 660 660 30 660 30 660 660 660 660 660 660 660 660 660 660 660 660 660 660 660 21 41 660 660 660 660 660 660 660 660
6 660 660 660 660 660 660 660 26 660 660 17 660 10 660 660 27 31 660 16 660 32 660 660 14 660 660 660 660 660 660 660 660 660 38 660 660 660 13 660 660 44 0 29 660 660 660 660 660 18 660 660 660 660 45 660 660 37 660 660 660 660 660 660 20 14 660 660 26 660 660 660 660 17 13 660 660 660 660 660 660 660 660 660 660 660 660 660 660 35 660 660 16 660 660
25 660 660 660 660 660 25 660 4 660 9 660 660 23 660 660 15 660 660 17 660 4 660 660 660 660 660 660 660 660 660 660 660 33 9 660 660 660 660 660 660 21 29 0 660 660 660 660 660 33 660 660 660 660 28 660 660 23 18 660 660 660 660 660 11 660 660 660 660 660 660 660 660 660 660 660 660 660 660 660 36 40 660 660 660 660 29 660 660 41 660 660 660 660 660
660 660 660 29 660 660 660 660 660 20 660 660 660 660 660 660 660 660 21 660 19 660 660 660 660 22 54 23 21 26 660 33 660 24 660 660 16 660 660 660 660 660 660 660 0 660 660 660 660 660 660 660 24 660 660 660 660 660 660 660 9 660 660 17 660 660 660 660 660 660 19 17 660 660 660 23 19 660 28 38 31 16 660 660 660 660 660 660 16 23 660 27 660 660 23
660 660 660 660 660 660 660 13 660 660 33 660 8 660 21 9 660 660 660 660 660 660 660 14 660 660 660 660 660 660 660 660 7 660 660 660 660 14 660 27 660 32 660 660 660 0 660 3 660 660 660 660 660 11 38 660 16 660 660 660 660 23 660 660 660 660 660 11 660 10 660 660 660 660 660 660 660 660 660 660 660 660 660 660 660 23 660 660 660 660 660 660 660 660 660
660 18 660 660 18 660 660 660 660 660 660 660 660 660 49 660 660 660 660 660 660 660 29 660 660 660 21 660 660 660 660 660 660 660 660 660 660 660 660 660 660 660 660 660 660 660 0 660 3 660 23 660 68 660 660 660 660 660 660 22 660 660 3 660 660 660 660 660 660 660 660 660 660 660 660 660 660 660 660 660 660 660 660 660 25 660 660 660 660 660 10 660 660 660 660
660 660 24 660 660 24 660 11 660 660 34 660 7 660 19 7 660 660 660 660 660 660 660 12 660 660 660 660 660 660 23 660 9 660 660 660 660 16 660 28 660 660 660 660 660 3 660 0 660 660 660 660 660 9 660 660 18 660 660 660 660 25 660 660 660 660 660 13 660 9 660 660 660 660 660 660 660 660 660 660 660 660 660 660 41 25 660 29 660 660 660 660 660 660 660
660 15 660 660 20 42 660 660 660 660 660 660 660 660 50 660 660 660 660 660 660 660 28 660 660 660 18 660 660 660 44 41 660 660 660 27 660 660 660 660 660 660 660 660 660 660 3 660 0 660 20 660 65 660 660 660 660 660 660 21 660 660 6 660 660 660 660 660 660 660 660 660 660 660 660 660 660 32 49 32 660 660 660 660 26 660 660 660 660 660 13 660 660 660 660
22 660 660 660 660 660 660 660 30 660 38 660 660 25 660 660 660 49 660 16 660 34 660 660 32 660 660 660 660 660 660 660 660 660 38 660 660 660 29 42 660 38 18 33 660 660 660 660 660 0 660 660 660 660 36 660 660 27 45 660 660 68 660 660 28 22 660 660 44 660 660 660 660 22 23 660 660 660 660 660 660 660 660 660 660 57 660 660 660 660 660 660 30 660 660
660 6 660 23 30 660 660 660 660 30 660 660 660 660 660 660 660 660 660 660 660 660 26 660 660 660 13 660 660 660 660 25 660 660 660 21 660 660 660 660 660 660 660 660 660 660 23 660 20 660 0 660 49 660 660 660 660 660 660 17 660 660 26 660 660 660 28 660 660 660 660 660 31 660 660 660 660 21 33 11 660 660 27 660 33 660 35 32 660 660 33 660 660 28 660
660 660 10 660 660 19 660 660 660 660 40 660 25 660 660 660 660 660 660 660 660 660 11 17 660 660 660 660 660 660 20 660 660 660 660 10 660 660 660 660 660 660 660 660 660 660 660 660 660 660 660 0 660 19 660 660 660 660 660 17 660 660 660 660 660 660 6 660 660 23 660 660 660 660 660 660 660 9 660 31 660 660 15 660 24 660 20 9 660 660 660 660 660 2 660
660 51 660 660 79 660 660 660 660 24 660 660 660 660 95 660 660 660 660 660 10 660 660 660 660 660 48 22 660 11 660 24 660 660 660 660 33 660 660 660 660 660 660 660 24 660 68 660 65 660 49 660 0 660 660 660 660 660 660 660 31 660 70 15 660 660 660 660 660 660 660 11 660 660 660 660 660 660 17 41 660 660 660 660 660 660 660 660 660 660 76 19 660 660 2
660 660 15 660 40 17 660 12 660 660 35 660 9 660 15 6 660 660 660 660 660 660 26 5 660 660 660 660 660 660 16 660 18 660 35 28 660 24 660 31 660 660 660 660 660 11 660 9 660 660 660 19 660 0 660 660 27 660 660 34 660 660 660 660 660 660 21 22 660 8 660 660 660 660 660 660 660 660 660 660 660 660 30 660 33 34 30 22 660 660 62 660 660 21 660
45 660 660 660 660 660 660 660 660 660 23 660 37 660 660 660 660 660 660 30 660 25 660 660 660 660 660 660 660 660 660 660 660 660 22 660 660 43 660 18 660 9 45 28 660 38 660 660 660 36 660 660 660 660 0 660 29 9 660 660 660 33 660 660 660 56 660 35 660 660 660 660 660 660 660 660 660 660 660 660 660 660 660 660 660 22 660 660 660 660 660 660 660 660 660
26 660 660 660 660 660 660 660 660 660 660 12 660 25 660 660 34 3 16 40 660 660 660 660 14 17 660 660 19 660 660 660 660 34 660 660 660 660 18 660 660 660 660 660 660 660 660 660 660 660 660 660 660 660 660 0 660 660 660 660 660 660 660 660 35 30 660 660 3 660 29 660 660 34 660 660 19 660 660 660 660 28 660 12 660 660 660 660 22 16 660 660 20 660 660
660 660 660 660 660 660 660 26 660 660 34 660 20 660 660 25 660 660 660 660 660 660 660 28 660 660 660 660 660 660 660 660 13 660 34 660 660 14 660 25 660 26 660 660 660 16 660 18 660 660 660 660 660 27 29 660 0 37 660 660 660 9 660 660 660 660 660 7 660 23 660 660 660 660 660 660 660 660 660 660 660 660 660 660 660 8 48 660 660 660 660 660 660 660 660
36 660 660 660 660 660 47 660 24 660 21 660 660 36 660 660 36 660 660 21 660 21 660 660 660 660 660 660 660 660 660 660 660 660 20 660 660 660 49 19 660 12 37 23 660 660 660 660 660 27 660 660 660 660 9 660 37 0 40 660 660 41 660 660 28 47 660 660 660 42 660 660 660 48 47 660 660 660 660 660 660 660 660 660 660 30 48 660 660 660 660 660 660 660 660
660 660 660 31 660 660 14 660 17 660 23 660 660 24 660 660 7 660 660 29 660 20 660 660 31 660 660 660 660 660 660 660 660 15 24 660 660 660 660 32 18 660 660 18 660 660 660 660 660 45 660 660 660 660 660 660 660 40 0 660 30 660 660 660 17 660 660 660 660 40 660 660 19 660 660 17 28 660 660 660 20 23 660 660 660 660 20 660 660 28 660 660 660 660 660
660 19 20 33 17 26 660 660 660 660 660 660 660 660 33 660 660 660 660 660 660 660 10 660 660 660 27 660 660 660 28 42 660 660 660 7 660 660 660 660 660 660 660 660 660 660 22 660 21 660 17 17 660 34 660 660 660 660 660 0 660 660 24 660 660 660 13 660 660 660 660 660 660 660 660 660 660 12 660 24 660 660 23 660 17 660 660 24 660 660 31 660 660 16 660
660 660 660 22 660 660 32 660 660 18 660 660 660 660 660 660 34 660 23 660 23 660 660 660 660 660 51 32 23 660 660 33 660 15 660 660 22 660 660 660 34 660 660 660 9 660 660 660 660 660 660 660 31 660 660 660 660 660 30 660 0 660 660 19 660 660 660 660 660 660 26 25 27 660 660 14 16 47 30 33 22 10 38 660 660 660 660 660 18 20 660 660 660 660 29
660 660 660 660 660 660 660 31 660 660 660 660 28 660 41 660 660 660 660 660 660 660 660 660 660 660 660 660 660 660 660 660 18 660 41 660 660 15 660 33 660 32 660 660 660 23 660 25 660 68 660 660 660 660 33 660 9 41 660 660 660 0 660 660 660 660 660 12 660 31 660 660 660 660 660 660 660 660 660 660 660 660 660 660 660 11 660 660 660 660 660 660 660 660 660
660 20 660 660 19 660 660 660 660 660 660 660 660 660 50 660 660 660 660 660 64 660 660 660 660 660 22 660 660 660 45 46 660 660 660 660 660 660 660 660 660 660 660 660 660 660 3 660 6 660 26 660 70 660 660 660 660 660 660 24 660 660 0 660 660 660 660 660 660 660 660 660 660 660 660 660 660 660 54 37 660 660 660 660 26 660 660 660 660 660 8 660 660 660 660
660 660 660 23 660 660 660 660 660 9 660 660 660 660 660 660 660 660 660 660 5 660 660 660 660 660 40 29 37 23 660 17 660 660 660 660 31 660 660 660 660 660 660 660 17 660 660 660 660 660 660 660 15 660 660 660 660 660 660 660 19 660 660 0 660 660 660 660 660 660 660 17 36 660 660 31 35 660 11 28 31 29 44 660 660 660 660 660 32 660 68 660 660 660 15
15 660 660 660 660 660 660 660 7 660 660 660 660 12 660 660 10 660 660 12 660 14 660 660 24 660 660 660 660 660 660 660 660 29 660 660 660 660 29 660 660 660 20 11 660 660 660 660 660 28 660 660 660 660 660 35 660 28 17 660 660 660 660 660 0 660 660 660 660 660 660 660 660 660 660 660 660 660 660 660 660 35 660 660 660 660 660 660 660 33 660 660 660 660 660
20 660 660 660 660 660 660 660 660 660 660 19 660 23 660 660 660 33 660 29 660 46 660 660 21 660 660 660 660 660 660 660 660 660 660 660 660 660 13 660 660 660 14 660 660 660 660 660 660 22 660 660 660 660 56 30 660 47 660 660 660 660 660 660 660 0 660 660 28 660 660 660 660 4 2 660 660 660 660 660 660 660 660 660 660 660 660 660 660 660 660 660 11 660 660
660 660 8 660 23 16 660 660 660 660 660 660 660 660 660 660 660 660 660 660 660 660 6 20 660 660 660 660 660 660 18 660 660 660 660 7 660 660 660 660 660 660 660 660 660 660 660 660 660 660 28 6 660 21 660 660 660 660 660 13 660 660 660 660 660 660 0 660 660 27 660 660 660 660 660 660 660 10 660 660 660 660 19 660 18 660 660 15 660 660 660 660 660 6 660
660 660 660 660 660 660 660 20 660 660 660 660 17 660 30 19 660 660 660 660 660 660 660 660 660 660 660 660 660 660 660 660 7 660 660 660 660 9 660 28 660 30 660 660 660 11 660 13 660 660 660 660 660 22 35 660 7 660 660 660 660 12 660 660 660 660 660 0 660 20 660 660 660 660 660 660 660 660 660 660 660 660 660 660 660 15 660 660 660 660 660 660 660 660 660
24 660 660 660 660 660 660 660 660 660 660 9 660 24 660 660 34 6 19 660 660 660 660 660 12 20 660 660 660 660 660 660 660 660 660 660 660 660 16 660 660 660 26 660 660 660 660 660 660 44 660 660 660 660 660 3 660 660 660 660 660 660 660 660 660 28 660 660 0 660 32 660 660 32 26 660 660 660 660 660 660 660 660 14 660 660 660 660 660 18 660 660 17 660 660
660 660 22 660 660 25 32 18 660 660 27 660 3 660 23 12 660 660 660 660 660 32 32 6 660 660 660 660 660 660 25 660 17 660 27 660 660 660 660 23 30 30 660 660 660 10 660 9 660 660 660 23 660 8 660 660 23 42 40 660 660 31 660 660 660 660 27 20 660 0 660 660 37 660 660 660 660 31 660 51 660 660 29 660 660 28 27 22 660 660 660 660 660 24 660
660 660 660 660 660 660 660 660 660 660 660 660 660 660 660 660 660 26 15 660 34 660 660 660 660 13 660 18 12 30 660 660 660 660 660 660 4 660 660 660 660 660 660 660 19 660 660 660 660 660 660 660 660 660 660 29 660 660 660 660 26 660 660 660 660 660 660 660 32 660 0 24 660 660 660 660 22 660 660 660 660 660 660 20 660 660 660 660 12 23 660 25 660 660 660
660 660 660 660 660 660 660 660 660 25 660 660 660 660 660 660 660 660 34 660 14 660 660 660 660 33 55 13 32 9 660 660 660 660 660 660 22 660 660 660 660 660 660 660 17 660 660 660 660 660 660 660 11 660 660 660 660 660 660 660 25 660 660 17 660 660 660 660 660 660 24 0 660 660 660 660 660 660 24 660 660 33 660 660 660 660 660 660 28 660 660 12 660 660 9
660 660 660 15 660 660 8 660 660 28 35 660 660 660 660 660 26 660 660 660 660 34 660 660 660 660 660 660 660 660 660 38 660 18 660 660 660 660 660 660 7 660 660 660 660 660 660 660 660 660 31 660 660 660 660 660 660 660 19 660 27 660 660 36 660 660 660 660 660 37 660 660 0 660 660 19 660 23 660 22 5 27 12 660 660 660 10 18 660 660 660 660 660 660 660
23 660 660 660 660 660 660 660 660 660 660 23 660 660 660 660 660 37 660 31 660 660 660 660 25 660 660 660 660 660 660 660 660 660 660 660 660 660 17 660 660 660 17 660 660 660 660 660 660 22 660 660 660 660 660 34 660 48 660 660 660 660 660 660 660 4 660 660 32 660 660 660 660 0 7 660 660 660 660 660 660 660 660 45 660 660 660 660 660 660 660 660 14 660 660
18 660 660 660 660 660 660 660 660 660 660 17 660 21 660 660 660 31 660 28 660 660 660 660 18 660 660 660 660 660 660 660 660 660 660 660 660 660 10 660 660 660 13 660 660 660 660 660 660 23 660 660 660 660 660 660 660 47 660 660 660 660 660 660 660 2 660 660 26 660 660 660 660 7 0 660 660 660 660 660 660 660 660 660 660 660 660 660 660 660 660 660 9 660 660
660 660 660 22 660 660 21 660 660 27 660 660 660 32 660 660 20 660 26 660 660 36 660 660 660 660 660 660 660 660 660 660 660 2 660 660 32 660 660 660 23 660 660 660 23 660 660 660 660 660 660 660 660 660 660 660 660 660 17 660 14 660 660 31 660 660 660 660 660 660 660 660 19 660 660 0 16 660 660 34 15 8 30 660 660 660 660 660 24 19 660 660 660 660 660
660 660 660 660 660 660 660 660 660 660 660 660 660 30 660 660 27 19 10 660 660 660 660 660 26 12 660 660 12 660 660 660 660 17 660 660 20 660 660 660 660 660 660 660 19 660 660 660 660 660 660 660 660 660 660 19 660 660 28 660 16 660 660 35 660 660 660 660 660 660 22 660 660 660 660 16 0 660 660 660 31 9 660 9 660 660 660 660 10 4 660 660 660 660 660
660 25 17 26 27 26 25 660 660 40 45 660 660 660 660 660 660 660 660 660 660 660 12 26 660 660 33 660 660 660 660 42 660 660 660 7 660 660 660 660 21 660 660 660 660 660 660 660 32 660 21 9 660 660 660 660 660 660 660 12 47 660 660 660 660 660 10 660 660 31 660 660 23 660 660 660 660 0 48 22 26 660 12 660 25 660 20 12 660 660 660 660 660 7 660
660 35 660 26 63 660 660 660 660 14 660 660 660 660 660 660 660 660 660 660 11 660 660 660 660 660 31 660 660 28 660 8 660 660 660 660 42 660 660 660 660 660 660 660 28 660 660 660 49 660 33 660 17 660 660 660 660 660 660 660 30 660 54 11 660 660 660 660 660 660 660 24 660 660 660 660 660 48 0 26 37 660 47 660 660 660 660 660 44 660 60 660 660 660 18
660 17 660 12 660 660 30 660 660 20 660 660 660 660 660 660 660 660 660 660 32 660 32 660 660 660 21 660 660 660 660 21 660 660 660 26 660 660 660 660 27 660 660 660 38 660 660 660 32 660 11 31 41 660 660 660 660 660 660 24 33 660 37 28 660 660 660 660 660 51 660 660 22 660 660 34 660 22 26 0 21 660 22 660 660 660 29 29 660 660 45 660 660 29 660
660 660 660 12 660 660 13 660 660 23 38 660 660 660 660 660 27 660 660 660 660 37 660 660 660 660 660 660 660 660 660 35 660 14 660 660 660 660 660 660 12 660 660 36 31 660 660 660 660 660 660 660 660 660 660 660 660 660 20 660 22 660 660 31 660 660 660 660 660 660 660 660 5 660 660 15 31 26 37 21 0 22 16 660 660 660 15 660 37 34 660 660 660 660 660
660 660 660 27 660 660 29 660 660 27 660 660 660 33 660 660 25 660 18 660 32 660 660 660 32 20 660 660 20 660 660 660 660 10 660 660 24 660 660 660 660 660 660 40 16 660 660 660 660 660 660 660 660 660 660 28 660 660 23 660 10 660 660 29 35 660 660 660 660 660 660 33 27 660 660 8 9 660 660 660 22 0 660 18 660 660 660 660 16 12 660 660 660 660 660
660 33 660 21 660 660 14 660 660 35 36 660 660 660 660 660 660 660 660 660 660 37 660 25 660 660 40 660 660 660 660 42 660 29 660 19 660 660 660 39 10 660 660 660 660 660 660 660 660 660 27 15 660 30 660 660 660 660 660 23 38 660 660 44 660 660 19 660 660 29 660 660 12 660 660 30 660 12 47 22 16 660 0 660 660 660 9 8 660 660 660 660 660 13 660
32 660 660 660 660 660 660 660 660 660 660 22 660 30 660 660 32 11 6 660 660 660 660 660 22 7 660 660 9 660 660 660 660 26 660 660 19 660 660 660 660 660 660 660 660 660 660 660 660 660 660 660 660 660 660 12 660 660 660 660 660 660 660 660 660 660 660 660 14 660 20 660 660 45 660 660 9 660 660 660 660 18 660 0 660 660 660 660 11 6 660 660 31 660 660
660 33 18 660 7 18 660 34 660 660 660 660 660 660 24 34 660 660 660 660 660 660 13 34 660 660 40 660 660 660 19 660 660 660 660 18 660 660 660 660 660 660 660 660 660 660 25 41 26 660 33 24 660 33 660 660 660 660 660 17 660 660 26 660 660 660 18 660 660 660 660 660 660 660 660 660 660 25 660 660 660 660 660 660 0 660 660 660 660 660 30 660 660 25 660
660 660 660 660 660 660 660 660 660 660 32 660 25 660 660 660 660 660 660 49 660 37 660 660 660 660 660 660 660 660 660 660 21 660 31 660 660 22 660 23 660 21 660 660 660 23 660 25 660 57 660 660 660 34 22 660 8 30 660 660 660 11 660 660 660 660 660 15 660 28 660 660 660 660 660 660 660 660 660 660 660 660 660 660 660 0 660 660 660 660 660 660 660 660 660
660 660 29 24 660 660 6 660 660 660 28 660 30 660 660 660 660 660 660 660 660 28 660 25 660 660 660 660 660 660 660 660 660 25 28 27 660 660 660 32 3 41 660 29 660 660 660 660 660 660 35 20 660 30 660 660 48 48 20 660 660 660 660 660 660 660 660 660 660 27 660 660 10 660 660 660 660 20 660 29 15 660 9 660 660 660 0 11 660 660 660 660 660 19 660
660 660 18 29 660 27 17 660 660 43 33 660 24 660 660 660 660 660 660 660 660 35 20 17 660 660 44 660 660 660 660 660 660 660 33 17 660 660 660 34 14 660 660 660 660 660 660 29 660 660 32 9 660 22 660 660 660 660 660 24 660 660 660 660 660 660 15 660 660 22 660 660 18 660 660 660 660 12 660 29 660 660 8 660 660 660 11 0 660 660 660 660 660 9 660
660 660 660 40 660 660 660 660 660 35 660 660 660 660 660 660 37 20 6 660 34 660 660 660 660 6 660 28 5 660 660 660 660 25 660 660 10 660 660 660 660 660 660 660 16 660 660 660 660 660 660 660 660 660 660 22 660 660 660 660 18 660 660 32 660 660 660 660 660 660 12 28 660 660 660 24 10 660 44 660 37 16 660 11 660 660 660 660 0 11 660 34 660 660 36
30 660 660 660 660 660 38 660 38 660 660 23 660 28 660 660 27 16 9 42 660 44 660 660 22 12 660 660 12 660 660 660 660 20 660 660 21 660 30 660 660 660 35 41 23 660 660 660 660 660 660 660 660 660 660 16 660 660 28 660 20 660 660 660 33 660 660 660 18 660 23 660 660 660 660 19 4 660 660 660 34 12 660 6 660 660 660 660 11 0 660 660 33 660 660
660 28 660 660 23 48 660 660 660 61 660 660 660 660 55 660 660 660 660 660 70 660 37 660 660 660 29 660 660 660 49 52 660 660 660 660 660 660 660 660 660 660 660 660 660 660 10 660 13 660 33 660 76 62 660 660 660 660 660 31 660 660 8 68 660 660 660 660 660 660 660 660 660 660 660 660 660 660 60 45 660 660 660 660 30 660 660 660 660 660 0 660 660 660 78
660 660 660 660 660 660 660 660 660 660 660 660 660 660 660 660 660 660 660 660 25 660 660 660 660 660 660 6 35 8 660 660 660 660 660 660 25 660 660 660 660 660 660 660 27 660 660 660 660 660 660 660 19 660 660 660 660 660 660 660 660 660 660 660 660 660 660 660 660 660 25 12 660 660 660 660 660 660 660 660 660 660 660 660 660 660 660 660 34 660 660 0 660 660 17
18 660 660 660 660 660 660 660 660 660 660 10 660 21 660 660 660 23 660 31 660 660 660 660 13 37 660 660 660 660 660 660 660 660 660 660 660 660 5 660 660 660 16 660 660 660 660 660 660 30 660 660 660 660 660 20 660 660 660 660 660 660 660 660 660 11 660 660 17 660 660 660 660 14 9 660 660 660 660 660 660 660 660 31 660 660 660 660 660 33 660 660 0 660 660
660 32 12 32 660 21 660 660 660 660 660 660 660 660 660 660 660 660 660 660 660 660 12 18 660 660 660 660 660 660 660 660 660 660 660 10 660 660 660 660 21 660 660 660 660 660 660 660 660 660 28 2 660 21 660 660 660 660 660 16 660 660 660 660 660 660 6 660 660 24 660 660 660 660 660 660 660 7 660 29 660 660 13 660 25 660 19 9 660 660 660 660 660 0 660
660 660 660 660 660 660 660 660 660 24 660 660 660 660 660 660 660 660 660 660 10 660 660 660 660 660 49 20 660 10 660 26 660 660 660 660 31 660 660 660 660 660 660 660 23 660 660 660 660 660 660 660 2 660 660 660 660 660 660 660 29 660 660 15 660 660 660 660 660 660 660 9 660 660 660 660 660 660 18 660 660 660 660 660 660 660 660 660 36 660 78 17 660 660 0
EOF
